
Gurobi 8.1.1 (mac64) logging started Mon Aug 12 11:59:34 2019


ERROR 10009: No Gurobi license found (user root, host Bennetts-MacBook-Air.local, hostid 56050dc2, cores 2)


Gurobi 8.1.1 (mac64) logging started Mon Aug 12 14:41:38 2019


ERROR 10009: No Gurobi license found (user root, host Bennetts-MacBook-Air.local, hostid 56050dc2, cores 2)


Gurobi 8.1.1 (mac64) logging started Mon Aug 12 14:43:24 2019


ERROR 10009: No Gurobi license found (user root, host Bennetts-MacBook-Air.local, hostid 56050dc2, cores 2)

